p tw 2707 2955
1 198
1 2602
2 54
2 2603
3 200
3 2604
4 56
4 2605
5 55
5 2606
6 58
6 2607
7 60
7 2608
8 57
8 2609
9 62
9 2610
10 59
10 2611
11 64
11 2612
12 209
12 2613
13 66
13 2614
14 61
14 2615
15 68
15 2616
16 63
16 2617
17 70
17 2618
18 65
18 2619
19 72
19 2620
20 217
20 2621
21 74
21 2622
22 67
22 2623
23 76
23 2624
24 69
24 2625
25 78
25 2626
26 71
26 2627
27 80
27 2628
28 73
28 2629
29 226
29 2630
30 82
30 2631
31 75
31 2632
32 84
32 2633
33 77
33 2634
34 86
34 2635
35 79
35 2636
36 88
36 2637
37 81
37 2638
38 83
38 2639
39 90
39 2640
40 85
40 2641
41 92
41 2642
42 87
42 2643
43 94
43 2644
44 89
44 2645
45 91
45 2646
46 96
46 2647
47 93
47 2648
48 98
48 2649
49 95
49 2650
50 97
50 2651
51 100
51 2652
52 99
52 2653
53 101
53 2654
54 102
55 103
56 104
57 105
58 106
59 107
60 108
61 109
62 110
63 111
64 112
65 113
66 114
67 115
68 116
69 117
70 118
71 119
72 120
73 121
74 122
75 123
76 124
77 125
78 126
79 127
80 128
81 129
82 130
83 131
84 132
85 133
86 134
87 135
88 136
89 137
90 138
91 139
92 140
93 141
94 142
95 143
96 144
97 145
98 146
99 147
100 148
101 149
102 103
102 150
103 151
104 105
104 152
105 153
106 107
106 154
107 155
108 109
108 156
109 157
110 111
110 158
111 159
112 113
112 160
113 161
114 115
114 162
115 163
116 117
116 164
117 165
118 119
118 166
119 167
120 121
120 168
121 169
122 123
122 170
123 171
124 125
124 172
125 173
126 127
126 174
127 175
128 129
128 176
129 177
130 131
130 178
131 179
132 133
132 180
133 181
134 135
134 182
135 183
136 137
136 184
137 185
138 139
138 186
139 187
140 141
140 188
141 189
142 143
142 190
143 191
144 145
144 192
145 193
146 147
146 194
147 195
148 149
148 196
149 197
150 199
151 202
152 201
153 205
154 203
155 207
156 204
157 211
158 206
159 213
160 208
161 215
162 210
163 219
164 212
165 221
166 214
167 223
168 216
169 225
170 218
171 228
172 220
173 230
174 222
175 232
176 224
177 234
178 227
179 235
180 229
181 237
182 231
183 239
184 233
185 241
186 236
187 242
188 238
189 244
190 240
191 246
192 243
193 247
194 245
195 249
196 248
197 250
198 251
199 366
200 253
201 252
202 255
203 370
204 254
205 257
206 256
207 259
208 375
209 261
210 377
211 263
212 258
213 265
214 260
215 267
216 383
217 269
218 262
219 271
220 264
221 273
222 266
223 275
224 268
225 392
226 393
227 270
228 277
229 272
230 279
231 274
232 281
233 276
234 401
235 402
236 278
237 283
238 280
239 285
240 282
241 408
242 409
243 284
244 287
245 286
246 413
247 414
248 288
249 416
250 417
251 289
252 290
253 291
254 292
255 293
256 294
257 295
258 296
259 297
260 298
261 299
262 300
263 301
264 302
265 303
266 304
267 305
268 306
269 307
270 308
271 309
272 310
273 311
274 312
275 313
276 314
277 315
278 316
279 317
280 318
281 319
282 320
283 321
284 322
285 323
286 324
287 325
288 326
289 290
289 327
290 328
291 292
291 329
292 330
293 294
293 331
294 332
295 296
295 333
296 334
297 298
297 335
298 336
299 300
299 337
300 338
301 302
301 339
302 340
303 304
303 341
304 342
305 306
305 343
306 344
307 308
307 345
308 346
309 310
309 347
310 348
311 312
311 349
312 350
313 314
313 351
314 352
315 316
315 353
316 354
317 318
317 355
318 356
319 320
319 357
320 358
321 322
321 359
322 360
323 324
323 361
324 362
325 326
325 363
326 364
327 365
328 368
329 367
330 371
331 369
332 373
333 372
334 379
335 374
336 381
337 376
338 385
339 378
340 387
341 380
342 389
343 382
344 391
345 384
346 394
347 386
348 396
349 388
350 398
351 390
352 400
353 395
354 403
355 397
356 405
357 399
358 407
359 404
360 410
361 406
362 412
363 411
364 415
365 418
366 419
367 420
368 421
369 422
370 423
371 562
372 424
373 425
374 426
375 427
376 428
377 429
378 430
379 431
380 432
381 433
382 434
383 435
384 436
385 437
386 438
387 439
388 440
389 441
390 442
391 443
392 583
393 444
394 445
395 446
396 447
397 448
398 449
399 450
400 451
401 592
402 452
403 453
404 454
405 455
406 456
407 457
408 599
409 458
410 459
411 460
412 461
413 604
414 462
415 463
416 607
417 608
418 464
419 465
420 466
421 467
422 468
423 469
424 470
425 471
426 472
427 473
428 474
429 475
430 476
431 477
432 478
433 479
434 480
435 481
436 482
437 483
438 484
439 485
440 486
441 487
442 488
443 489
444 490
445 491
446 492
447 493
448 494
449 495
450 496
451 497
452 498
453 499
454 500
455 501
456 502
457 503
458 504
459 505
460 506
461 507
462 508
463 509
464 465
464 510
465 511
466 467
466 512
467 513
468 469
468 514
469 515
470 471
470 516
471 517
472 473
472 518
473 519
474 475
474 520
475 521
476 477
476 522
477 523
478 479
478 524
479 525
480 481
480 526
481 527
482 483
482 528
483 529
484 485
484 530
485 531
486 487
486 532
487 533
488 489
488 534
489 535
490 491
490 536
491 537
492 493
492 538
493 539
494 495
494 540
495 541
496 497
496 542
497 543
498 499
498 544
499 545
500 501
500 546
501 547
502 503
502 548
503 549
504 505
504 550
505 551
506 507
506 552
507 553
508 509
508 554
509 555
510 556
511 557
512 558
513 559
514 560
515 561
516 563
517 564
518 565
519 566
520 567
521 568
522 569
523 570
524 571
525 572
526 573
527 574
528 575
529 576
530 577
531 578
532 579
533 580
534 581
535 582
536 584
537 585
538 586
539 587
540 588
541 589
542 590
543 591
544 593
545 594
546 595
547 596
548 597
549 598
550 600
551 601
552 602
553 603
554 605
555 606
556 729
557 730
558 731
559 609
560 610
561 734
562 611
563 612
564 613
565 614
566 739
567 740
568 615
569 616
570 617
571 618
572 619
573 620
574 747
575 748
576 621
577 622
578 623
579 624
580 625
581 626
582 627
583 628
584 757
585 629
586 630
587 631
588 632
589 633
590 634
591 635
592 636
593 766
594 637
595 638
596 639
597 640
598 641
599 642
600 773
601 643
602 644
603 645
604 646
605 778
606 647
607 648
608 781
609 649
610 650
611 651
612 652
613 653
614 654
615 655
616 656
617 657
618 658
619 659
620 660
621 661
622 662
623 663
624 664
625 665
626 666
627 667
628 668
629 669
630 670
631 671
632 672
633 673
634 674
635 675
636 676
637 677
638 678
639 679
640 680
641 681
642 682
643 683
644 684
645 685
646 686
647 687
648 688
649 650
649 689
650 690
651 652
651 691
652 692
653 654
653 693
654 694
655 656
655 695
656 696
657 658
657 697
658 698
659 660
659 699
660 700
661 662
661 701
662 702
663 664
663 703
664 704
665 666
665 705
666 706
667 668
667 707
668 708
669 670
669 709
670 710
671 672
671 711
672 712
673 674
673 713
674 714
675 676
675 715
676 716
677 678
677 717
678 718
679 680
679 719
680 720
681 682
681 721
682 722
683 684
683 723
684 724
685 686
685 725
686 726
687 688
687 727
688 728
689 732
690 733
691 735
692 736
693 737
694 738
695 741
696 742
697 743
698 744
699 745
700 746
701 749
702 750
703 751
704 752
705 753
706 754
707 755
708 756
709 758
710 759
711 760
712 761
713 762
714 763
715 764
716 765
717 767
718 768
719 769
720 770
721 771
722 772
723 774
724 775
725 776
726 777
727 779
728 780
729 782
730 783
731 784
732 785
733 786
734 787
735 926
736 788
737 789
738 790
739 791
740 792
741 793
742 794
743 795
744 796
745 797
746 798
747 799
748 800
749 801
750 802
751 803
752 804
753 805
754 806
755 807
756 947
757 808
758 809
759 810
760 811
761 812
762 813
763 814
764 815
765 956
766 816
767 817
768 818
769 819
770 820
771 821
772 963
773 822
774 823
775 824
776 825
777 968
778 826
779 827
780 971
781 972
782 828
783 829
784 830
785 831
786 832
787 833
788 834
789 835
790 836
791 837
792 838
793 839
794 840
795 841
796 842
797 843
798 844
799 845
800 846
801 847
802 848
803 849
804 850
805 851
806 852
807 853
808 854
809 855
810 856
811 857
812 858
813 859
814 860
815 861
816 862
817 863
818 864
819 865
820 866
821 867
822 868
823 869
824 870
825 871
826 872
827 873
828 829
828 874
829 875
830 831
830 876
831 877
832 833
832 878
833 879
834 835
834 880
835 881
836 837
836 882
837 883
838 839
838 884
839 885
840 841
840 886
841 887
842 843
842 888
843 889
844 845
844 890
845 891
846 847
846 892
847 893
848 849
848 894
849 895
850 851
850 896
851 897
852 853
852 898
853 899
854 855
854 900
855 901
856 857
856 902
857 903
858 859
858 904
859 905
860 861
860 906
861 907
862 863
862 908
863 909
864 865
864 910
865 911
866 867
866 912
867 913
868 869
868 914
869 915
870 871
870 916
871 917
872 873
872 918
873 919
874 920
875 921
876 922
877 923
878 924
879 925
880 927
881 928
882 929
883 930
884 931
885 932
886 933
887 934
888 935
889 936
890 937
891 938
892 939
893 940
894 941
895 942
896 943
897 944
898 945
899 946
900 948
901 949
902 950
903 951
904 952
905 953
906 954
907 955
908 957
909 958
910 959
911 960
912 961
913 962
914 964
915 965
916 966
917 967
918 969
919 970
920 1093
921 1094
922 1095
923 973
924 974
925 1098
926 975
927 976
928 977
929 978
930 1103
931 1104
932 979
933 980
934 981
935 982
936 983
937 984
938 1111
939 1112
940 985
941 986
942 987
943 988
944 989
945 990
946 991
947 992
948 1121
949 993
950 994
951 995
952 996
953 997
954 998
955 999
956 1000
957 1130
958 1001
959 1002
960 1003
961 1004
962 1005
963 1006
964 1137
965 1007
966 1008
967 1009
968 1010
969 1142
970 1011
971 1012
972 1145
973 1013
974 1014
975 1015
976 1016
977 1017
978 1018
979 1019
980 1020
981 1021
982 1022
983 1023
984 1024
985 1025
986 1026
987 1027
988 1028
989 1029
990 1030
991 1031
992 1032
993 1033
994 1034
995 1035
996 1036
997 1037
998 1038
999 1039
1000 1040
1001 1041
1002 1042
1003 1043
1004 1044
1005 1045
1006 1046
1007 1047
1008 1048
1009 1049
1010 1050
1011 1051
1012 1052
1013 1014
1013 1053
1014 1054
1015 1016
1015 1055
1016 1056
1017 1018
1017 1057
1018 1058
1019 1020
1019 1059
1020 1060
1021 1022
1021 1061
1022 1062
1023 1024
1023 1063
1024 1064
1025 1026
1025 1065
1026 1066
1027 1028
1027 1067
1028 1068
1029 1030
1029 1069
1030 1070
1031 1032
1031 1071
1032 1072
1033 1034
1033 1073
1034 1074
1035 1036
1035 1075
1036 1076
1037 1038
1037 1077
1038 1078
1039 1040
1039 1079
1040 1080
1041 1042
1041 1081
1042 1082
1043 1044
1043 1083
1044 1084
1045 1046
1045 1085
1046 1086
1047 1048
1047 1087
1048 1088
1049 1050
1049 1089
1050 1090
1051 1052
1051 1091
1052 1092
1053 1096
1054 1097
1055 1099
1056 1100
1057 1101
1058 1102
1059 1105
1060 1106
1061 1107
1062 1108
1063 1109
1064 1110
1065 1113
1066 1114
1067 1115
1068 1116
1069 1117
1070 1118
1071 1119
1072 1120
1073 1122
1074 1123
1075 1124
1076 1125
1077 1126
1078 1127
1079 1128
1080 1129
1081 1131
1082 1132
1083 1133
1084 1134
1085 1135
1086 1136
1087 1138
1088 1139
1089 1140
1090 1141
1091 1143
1092 1144
1093 1290
1094 1146
1095 1292
1096 1148
1097 1147
1098 1150
1099 1152
1100 1149
1101 1154
1102 1151
1103 1156
1104 1301
1105 1158
1106 1153
1107 1160
1108 1155
1109 1162
1110 1157
1111 1164
1112 1309
1113 1166
1114 1159
1115 1168
1116 1161
1117 1170
1118 1163
1119 1172
1120 1165
1121 1318
1122 1174
1123 1167
1124 1176
1125 1169
1126 1178
1127 1171
1128 1180
1129 1173
1130 1175
1131 1182
1132 1177
1133 1184
1134 1179
1135 1186
1136 1181
1137 1183
1138 1188
1139 1185
1140 1190
1141 1187
1142 1189
1143 1192
1144 1191
1145 1193
1146 1194
1147 1195
1148 1196
1149 1197
1150 1198
1151 1199
1152 1200
1153 1201
1154 1202
1155 1203
1156 1204
1157 1205
1158 1206
1159 1207
1160 1208
1161 1209
1162 1210
1163 1211
1164 1212
1165 1213
1166 1214
1167 1215
1168 1216
1169 1217
1170 1218
1171 1219
1172 1220
1173 1221
1174 1222
1175 1223
1176 1224
1177 1225
1178 1226
1179 1227
1180 1228
1181 1229
1182 1230
1183 1231
1184 1232
1185 1233
1186 1234
1187 1235
1188 1236
1189 1237
1190 1238
1191 1239
1192 1240
1193 1241
1194 1195
1194 1242
1195 1243
1196 1197
1196 1244
1197 1245
1198 1199
1198 1246
1199 1247
1200 1201
1200 1248
1201 1249
1202 1203
1202 1250
1203 1251
1204 1205
1204 1252
1205 1253
1206 1207
1206 1254
1207 1255
1208 1209
1208 1256
1209 1257
1210 1211
1210 1258
1211 1259
1212 1213
1212 1260
1213 1261
1214 1215
1214 1262
1215 1263
1216 1217
1216 1264
1217 1265
1218 1219
1218 1266
1219 1267
1220 1221
1220 1268
1221 1269
1222 1223
1222 1270
1223 1271
1224 1225
1224 1272
1225 1273
1226 1227
1226 1274
1227 1275
1228 1229
1228 1276
1229 1277
1230 1231
1230 1278
1231 1279
1232 1233
1232 1280
1233 1281
1234 1235
1234 1282
1235 1283
1236 1237
1236 1284
1237 1285
1238 1239
1238 1286
1239 1287
1240 1241
1240 1288
1241 1289
1242 1291
1243 1294
1244 1293
1245 1297
1246 1295
1247 1299
1248 1296
1249 1303
1250 1298
1251 1305
1252 1300
1253 1307
1254 1302
1255 1311
1256 1304
1257 1313
1258 1306
1259 1315
1260 1308
1261 1317
1262 1310
1263 1320
1264 1312
1265 1322
1266 1314
1267 1324
1268 1316
1269 1326
1270 1319
1271 1327
1272 1321
1273 1329
1274 1323
1275 1331
1276 1325
1277 1333
1278 1328
1279 1334
1280 1330
1281 1336
1282 1332
1283 1338
1284 1335
1285 1339
1286 1337
1287 1341
1288 1340
1289 1342
1290 1343
1291 1458
1292 1345
1293 1344
1294 1347
1295 1462
1296 1346
1297 1349
1298 1348
1299 1351
1300 1467
1301 1353
1302 1469
1303 1355
1304 1350
1305 1357
1306 1352
1307 1359
1308 1475
1309 1361
1310 1354
1311 1363
1312 1356
1313 1365
1314 1358
1315 1367
1316 1360
1317 1484
1318 1485
1319 1362
1320 1369
1321 1364
1322 1371
1323 1366
1324 1373
1325 1368
1326 1493
1327 1494
1328 1370
1329 1375
1330 1372
1331 1377
1332 1374
1333 1500
1334 1501
1335 1376
1336 1379
1337 1378
1338 1505
1339 1506
1340 1380
1341 1508
1342 1509
1343 1381
1344 1382
1345 1383
1346 1384
1347 1385
1348 1386
1349 1387
1350 1388
1351 1389
1352 1390
1353 1391
1354 1392
1355 1393
1356 1394
1357 1395
1358 1396
1359 1397
1360 1398
1361 1399
1362 1400
1363 1401
1364 1402
1365 1403
1366 1404
1367 1405
1368 1406
1369 1407
1370 1408
1371 1409
1372 1410
1373 1411
1374 1412
1375 1413
1376 1414
1377 1415
1378 1416
1379 1417
1380 1418
1381 1382
1381 1419
1382 1420
1383 1384
1383 1421
1384 1422
1385 1386
1385 1423
1386 1424
1387 1388
1387 1425
1388 1426
1389 1390
1389 1427
1390 1428
1391 1392
1391 1429
1392 1430
1393 1394
1393 1431
1394 1432
1395 1396
1395 1433
1396 1434
1397 1398
1397 1435
1398 1436
1399 1400
1399 1437
1400 1438
1401 1402
1401 1439
1402 1440
1403 1404
1403 1441
1404 1442
1405 1406
1405 1443
1406 1444
1407 1408
1407 1445
1408 1446
1409 1410
1409 1447
1410 1448
1411 1412
1411 1449
1412 1450
1413 1414
1413 1451
1414 1452
1415 1416
1415 1453
1416 1454
1417 1418
1417 1455
1418 1456
1419 1457
1420 1460
1421 1459
1422 1463
1423 1461
1424 1465
1425 1464
1426 1471
1427 1466
1428 1473
1429 1468
1430 1477
1431 1470
1432 1479
1433 1472
1434 1481
1435 1474
1436 1483
1437 1476
1438 1486
1439 1478
1440 1488
1441 1480
1442 1490
1443 1482
1444 1492
1445 1487
1446 1495
1447 1489
1448 1497
1449 1491
1450 1499
1451 1496
1452 1502
1453 1498
1454 1504
1455 1503
1456 1507
1457 1654
1458 1510
1459 1656
1460 1512
1461 1511
1462 1514
1463 1516
1464 1513
1465 1518
1466 1515
1467 1520
1468 1665
1469 1522
1470 1517
1471 1524
1472 1519
1473 1526
1474 1521
1475 1528
1476 1673
1477 1530
1478 1523
1479 1532
1480 1525
1481 1534
1482 1527
1483 1536
1484 1529
1485 1682
1486 1538
1487 1531
1488 1540
1489 1533
1490 1542
1491 1535
1492 1544
1493 1537
1494 1539
1495 1546
1496 1541
1497 1548
1498 1543
1499 1550
1500 1545
1501 1547
1502 1552
1503 1549
1504 1554
1505 1551
1506 1553
1507 1556
1508 1555
1509 1557
1510 1558
1511 1559
1512 1560
1513 1561
1514 1562
1515 1563
1516 1564
1517 1565
1518 1566
1519 1567
1520 1568
1521 1569
1522 1570
1523 1571
1524 1572
1525 1573
1526 1574
1527 1575
1528 1576
1529 1577
1530 1578
1531 1579
1532 1580
1533 1581
1534 1582
1535 1583
1536 1584
1537 1585
1538 1586
1539 1587
1540 1588
1541 1589
1542 1590
1543 1591
1544 1592
1545 1593
1546 1594
1547 1595
1548 1596
1549 1597
1550 1598
1551 1599
1552 1600
1553 1601
1554 1602
1555 1603
1556 1604
1557 1605
1558 1559
1558 1606
1559 1607
1560 1561
1560 1608
1561 1609
1562 1563
1562 1610
1563 1611
1564 1565
1564 1612
1565 1613
1566 1567
1566 1614
1567 1615
1568 1569
1568 1616
1569 1617
1570 1571
1570 1618
1571 1619
1572 1573
1572 1620
1573 1621
1574 1575
1574 1622
1575 1623
1576 1577
1576 1624
1577 1625
1578 1579
1578 1626
1579 1627
1580 1581
1580 1628
1581 1629
1582 1583
1582 1630
1583 1631
1584 1585
1584 1632
1585 1633
1586 1587
1586 1634
1587 1635
1588 1589
1588 1636
1589 1637
1590 1591
1590 1638
1591 1639
1592 1593
1592 1640
1593 1641
1594 1595
1594 1642
1595 1643
1596 1597
1596 1644
1597 1645
1598 1599
1598 1646
1599 1647
1600 1601
1600 1648
1601 1649
1602 1603
1602 1650
1603 1651
1604 1605
1604 1652
1605 1653
1606 1655
1607 1658
1608 1657
1609 1661
1610 1659
1611 1663
1612 1660
1613 1667
1614 1662
1615 1669
1616 1664
1617 1671
1618 1666
1619 1675
1620 1668
1621 1677
1622 1670
1623 1679
1624 1672
1625 1681
1626 1674
1627 1684
1628 1676
1629 1686
1630 1678
1631 1688
1632 1680
1633 1690
1634 1683
1635 1691
1636 1685
1637 1693
1638 1687
1639 1695
1640 1689
1641 1697
1642 1692
1643 1698
1644 1694
1645 1700
1646 1696
1647 1702
1648 1699
1649 1703
1650 1701
1651 1705
1652 1704
1653 1706
1654 1707
1655 1822
1656 1709
1657 1708
1658 1711
1659 1826
1660 1710
1661 1713
1662 1712
1663 1715
1664 1831
1665 1717
1666 1833
1667 1719
1668 1714
1669 1721
1670 1716
1671 1723
1672 1839
1673 1725
1674 1718
1675 1727
1676 1720
1677 1729
1678 1722
1679 1731
1680 1724
1681 1848
1682 1849
1683 1726
1684 1733
1685 1728
1686 1735
1687 1730
1688 1737
1689 1732
1690 1857
1691 1858
1692 1734
1693 1739
1694 1736
1695 1741
1696 1738
1697 1864
1698 1865
1699 1740
1700 1743
1701 1742
1702 1869
1703 1870
1704 1744
1705 1872
1706 1873
1707 1745
1708 1746
1709 1747
1710 1748
1711 1749
1712 1750
1713 1751
1714 1752
1715 1753
1716 1754
1717 1755
1718 1756
1719 1757
1720 1758
1721 1759
1722 1760
1723 1761
1724 1762
1725 1763
1726 1764
1727 1765
1728 1766
1729 1767
1730 1768
1731 1769
1732 1770
1733 1771
1734 1772
1735 1773
1736 1774
1737 1775
1738 1776
1739 1777
1740 1778
1741 1779
1742 1780
1743 1781
1744 1782
1745 1746
1745 1783
1746 1784
1747 1748
1747 1785
1748 1786
1749 1750
1749 1787
1750 1788
1751 1752
1751 1789
1752 1790
1753 1754
1753 1791
1754 1792
1755 1756
1755 1793
1756 1794
1757 1758
1757 1795
1758 1796
1759 1760
1759 1797
1760 1798
1761 1762
1761 1799
1762 1800
1763 1764
1763 1801
1764 1802
1765 1766
1765 1803
1766 1804
1767 1768
1767 1805
1768 1806
1769 1770
1769 1807
1770 1808
1771 1772
1771 1809
1772 1810
1773 1774
1773 1811
1774 1812
1775 1776
1775 1813
1776 1814
1777 1778
1777 1815
1778 1816
1779 1780
1779 1817
1780 1818
1781 1782
1781 1819
1782 1820
1783 1821
1784 1824
1785 1823
1786 1827
1787 1825
1788 1829
1789 1828
1790 1835
1791 1830
1792 1837
1793 1832
1794 1841
1795 1834
1796 1843
1797 1836
1798 1845
1799 1838
1800 1847
1801 1840
1802 1850
1803 1842
1804 1852
1805 1844
1806 1854
1807 1846
1808 1856
1809 1851
1810 1859
1811 1853
1812 1861
1813 1855
1814 1863
1815 1860
1816 1866
1817 1862
1818 1868
1819 1867
1820 1871
1821 1874
1822 1875
1823 1876
1824 1877
1825 1878
1826 1879
1827 2018
1828 1880
1829 1881
1830 1882
1831 1883
1832 1884
1833 1885
1834 1886
1835 1887
1836 1888
1837 1889
1838 1890
1839 1891
1840 1892
1841 1893
1842 1894
1843 1895
1844 1896
1845 1897
1846 1898
1847 1899
1848 2039
1849 1900
1850 1901
1851 1902
1852 1903
1853 1904
1854 1905
1855 1906
1856 1907
1857 2048
1858 1908
1859 1909
1860 1910
1861 1911
1862 1912
1863 1913
1864 2055
1865 1914
1866 1915
1867 1916
1868 1917
1869 2060
1870 1918
1871 1919
1872 2063
1873 2064
1874 1920
1875 1921
1876 1922
1877 1923
1878 1924
1879 1925
1880 1926
1881 1927
1882 1928
1883 1929
1884 1930
1885 1931
1886 1932
1887 1933
1888 1934
1889 1935
1890 1936
1891 1937
1892 1938
1893 1939
1894 1940
1895 1941
1896 1942
1897 1943
1898 1944
1899 1945
1900 1946
1901 1947
1902 1948
1903 1949
1904 1950
1905 1951
1906 1952
1907 1953
1908 1954
1909 1955
1910 1956
1911 1957
1912 1958
1913 1959
1914 1960
1915 1961
1916 1962
1917 1963
1918 1964
1919 1965
1920 1921
1920 1966
1921 1967
1922 1923
1922 1968
1923 1969
1924 1925
1924 1970
1925 1971
1926 1927
1926 1972
1927 1973
1928 1929
1928 1974
1929 1975
1930 1931
1930 1976
1931 1977
1932 1933
1932 1978
1933 1979
1934 1935
1934 1980
1935 1981
1936 1937
1936 1982
1937 1983
1938 1939
1938 1984
1939 1985
1940 1941
1940 1986
1941 1987
1942 1943
1942 1988
1943 1989
1944 1945
1944 1990
1945 1991
1946 1947
1946 1992
1947 1993
1948 1949
1948 1994
1949 1995
1950 1951
1950 1996
1951 1997
1952 1953
1952 1998
1953 1999
1954 1955
1954 2000
1955 2001
1956 1957
1956 2002
1957 2003
1958 1959
1958 2004
1959 2005
1960 1961
1960 2006
1961 2007
1962 1963
1962 2008
1963 2009
1964 1965
1964 2010
1965 2011
1966 2012
1967 2013
1968 2014
1969 2015
1970 2016
1971 2017
1972 2019
1973 2020
1974 2021
1975 2022
1976 2023
1977 2024
1978 2025
1979 2026
1980 2027
1981 2028
1982 2029
1983 2030
1984 2031
1985 2032
1986 2033
1987 2034
1988 2035
1989 2036
1990 2037
1991 2038
1992 2040
1993 2041
1994 2042
1995 2043
1996 2044
1997 2045
1998 2046
1999 2047
2000 2049
2001 2050
2002 2051
2003 2052
2004 2053
2005 2054
2006 2056
2007 2057
2008 2058
2009 2059
2010 2061
2011 2062
2012 2185
2013 2186
2014 2187
2015 2065
2016 2066
2017 2190
2018 2067
2019 2068
2020 2069
2021 2070
2022 2195
2023 2196
2024 2071
2025 2072
2026 2073
2027 2074
2028 2075
2029 2076
2030 2203
2031 2204
2032 2077
2033 2078
2034 2079
2035 2080
2036 2081
2037 2082
2038 2083
2039 2084
2040 2213
2041 2085
2042 2086
2043 2087
2044 2088
2045 2089
2046 2090
2047 2091
2048 2092
2049 2222
2050 2093
2051 2094
2052 2095
2053 2096
2054 2097
2055 2098
2056 2229
2057 2099
2058 2100
2059 2101
2060 2102
2061 2234
2062 2103
2063 2104
2064 2237
2065 2105
2066 2106
2067 2107
2068 2108
2069 2109
2070 2110
2071 2111
2072 2112
2073 2113
2074 2114
2075 2115
2076 2116
2077 2117
2078 2118
2079 2119
2080 2120
2081 2121
2082 2122
2083 2123
2084 2124
2085 2125
2086 2126
2087 2127
2088 2128
2089 2129
2090 2130
2091 2131
2092 2132
2093 2133
2094 2134
2095 2135
2096 2136
2097 2137
2098 2138
2099 2139
2100 2140
2101 2141
2102 2142
2103 2143
2104 2144
2105 2106
2105 2145
2106 2146
2107 2108
2107 2147
2108 2148
2109 2110
2109 2149
2110 2150
2111 2112
2111 2151
2112 2152
2113 2114
2113 2153
2114 2154
2115 2116
2115 2155
2116 2156
2117 2118
2117 2157
2118 2158
2119 2120
2119 2159
2120 2160
2121 2122
2121 2161
2122 2162
2123 2124
2123 2163
2124 2164
2125 2126
2125 2165
2126 2166
2127 2128
2127 2167
2128 2168
2129 2130
2129 2169
2130 2170
2131 2132
2131 2171
2132 2172
2133 2134
2133 2173
2134 2174
2135 2136
2135 2175
2136 2176
2137 2138
2137 2177
2138 2178
2139 2140
2139 2179
2140 2180
2141 2142
2141 2181
2142 2182
2143 2144
2143 2183
2144 2184
2145 2188
2146 2189
2147 2191
2148 2192
2149 2193
2150 2194
2151 2197
2152 2198
2153 2199
2154 2200
2155 2201
2156 2202
2157 2205
2158 2206
2159 2207
2160 2208
2161 2209
2162 2210
2163 2211
2164 2212
2165 2214
2166 2215
2167 2216
2168 2217
2169 2218
2170 2219
2171 2220
2172 2221
2173 2223
2174 2224
2175 2225
2176 2226
2177 2227
2178 2228
2179 2230
2180 2231
2181 2232
2182 2233
2183 2235
2184 2236
2185 2238
2186 2239
2187 2240
2188 2241
2189 2242
2190 2243
2191 2382
2192 2244
2193 2245
2194 2246
2195 2247
2196 2248
2197 2249
2198 2250
2199 2251
2200 2252
2201 2253
2202 2254
2203 2255
2204 2256
2205 2257
2206 2258
2207 2259
2208 2260
2209 2261
2210 2262
2211 2263
2212 2403
2213 2264
2214 2265
2215 2266
2216 2267
2217 2268
2218 2269
2219 2270
2220 2271
2221 2412
2222 2272
2223 2273
2224 2274
2225 2275
2226 2276
2227 2277
2228 2419
2229 2278
2230 2279
2231 2280
2232 2281
2233 2424
2234 2282
2235 2283
2236 2427
2237 2428
2238 2284
2239 2285
2240 2286
2241 2287
2242 2288
2243 2289
2244 2290
2245 2291
2246 2292
2247 2293
2248 2294
2249 2295
2250 2296
2251 2297
2252 2298
2253 2299
2254 2300
2255 2301
2256 2302
2257 2303
2258 2304
2259 2305
2260 2306
2261 2307
2262 2308
2263 2309
2264 2310
2265 2311
2266 2312
2267 2313
2268 2314
2269 2315
2270 2316
2271 2317
2272 2318
2273 2319
2274 2320
2275 2321
2276 2322
2277 2323
2278 2324
2279 2325
2280 2326
2281 2327
2282 2328
2283 2329
2284 2285
2284 2330
2285 2331
2286 2287
2286 2332
2287 2333
2288 2289
2288 2334
2289 2335
2290 2291
2290 2336
2291 2337
2292 2293
2292 2338
2293 2339
2294 2295
2294 2340
2295 2341
2296 2297
2296 2342
2297 2343
2298 2299
2298 2344
2299 2345
2300 2301
2300 2346
2301 2347
2302 2303
2302 2348
2303 2349
2304 2305
2304 2350
2305 2351
2306 2307
2306 2352
2307 2353
2308 2309
2308 2354
2309 2355
2310 2311
2310 2356
2311 2357
2312 2313
2312 2358
2313 2359
2314 2315
2314 2360
2315 2361
2316 2317
2316 2362
2317 2363
2318 2319
2318 2364
2319 2365
2320 2321
2320 2366
2321 2367
2322 2323
2322 2368
2323 2369
2324 2325
2324 2370
2325 2371
2326 2327
2326 2372
2327 2373
2328 2329
2328 2374
2329 2375
2330 2376
2331 2377
2332 2378
2333 2379
2334 2380
2335 2381
2336 2383
2337 2384
2338 2385
2339 2386
2340 2387
2341 2388
2342 2389
2343 2390
2344 2391
2345 2392
2346 2393
2347 2394
2348 2395
2349 2396
2350 2397
2351 2398
2352 2399
2353 2400
2354 2401
2355 2402
2356 2404
2357 2405
2358 2406
2359 2407
2360 2408
2361 2409
2362 2410
2363 2411
2364 2413
2365 2414
2366 2415
2367 2416
2368 2417
2369 2418
2370 2420
2371 2421
2372 2422
2373 2423
2374 2425
2375 2426
2376 2549
2377 2550
2378 2551
2379 2429
2380 2430
2381 2554
2382 2431
2383 2432
2384 2433
2385 2434
2386 2559
2387 2560
2388 2435
2389 2436
2390 2437
2391 2438
2392 2439
2393 2440
2394 2567
2395 2568
2396 2441
2397 2442
2398 2443
2399 2444
2400 2445
2401 2446
2402 2447
2403 2448
2404 2577
2405 2449
2406 2450
2407 2451
2408 2452
2409 2453
2410 2454
2411 2455
2412 2456
2413 2586
2414 2457
2415 2458
2416 2459
2417 2460
2418 2461
2419 2462
2420 2593
2421 2463
2422 2464
2423 2465
2424 2466
2425 2598
2426 2467
2427 2468
2428 2601
2429 2469
2430 2470
2431 2471
2432 2472
2433 2473
2434 2474
2435 2475
2436 2476
2437 2477
2438 2478
2439 2479
2440 2480
2441 2481
2442 2482
2443 2483
2444 2484
2445 2485
2446 2486
2447 2487
2448 2488
2449 2489
2450 2490
2451 2491
2452 2492
2453 2493
2454 2494
2455 2495
2456 2496
2457 2497
2458 2498
2459 2499
2460 2500
2461 2501
2462 2502
2463 2503
2464 2504
2465 2505
2466 2506
2467 2507
2468 2508
2469 2470
2469 2509
2470 2510
2471 2472
2471 2511
2472 2512
2473 2474
2473 2513
2474 2514
2475 2476
2475 2515
2476 2516
2477 2478
2477 2517
2478 2518
2479 2480
2479 2519
2480 2520
2481 2482
2481 2521
2482 2522
2483 2484
2483 2523
2484 2524
2485 2486
2485 2525
2486 2526
2487 2488
2487 2527
2488 2528
2489 2490
2489 2529
2490 2530
2491 2492
2491 2531
2492 2532
2493 2494
2493 2533
2494 2534
2495 2496
2495 2535
2496 2536
2497 2498
2497 2537
2498 2538
2499 2500
2499 2539
2500 2540
2501 2502
2501 2541
2502 2542
2503 2504
2503 2543
2504 2544
2505 2506
2505 2545
2506 2546
2507 2508
2507 2547
2508 2548
2509 2552
2510 2553
2511 2555
2512 2556
2513 2557
2514 2558
2515 2561
2516 2562
2517 2563
2518 2564
2519 2565
2520 2566
2521 2569
2522 2570
2523 2571
2524 2572
2525 2573
2526 2574
2527 2575
2528 2576
2529 2578
2530 2579
2531 2580
2532 2581
2533 2582
2534 2583
2535 2584
2536 2585
2537 2587
2538 2588
2539 2589
2540 2590
2541 2591
2542 2592
2543 2594
2544 2595
2545 2596
2546 2597
2547 2599
2548 2600
2549 2655
2550 2656
2551 2657
2552 2658
2553 2659
2554 2660
2555 2661
2556 2662
2557 2663
2558 2664
2559 2665
2560 2666
2561 2667
2562 2668
2563 2669
2564 2670
2565 2671
2566 2672
2567 2673
2568 2674
2569 2675
2570 2676
2571 2677
2572 2678
2573 2679
2574 2680
2575 2681
2576 2682
2577 2683
2578 2684
2579 2685
2580 2686
2581 2687
2582 2688
2583 2689
2584 2690
2585 2691
2586 2692
2587 2693
2588 2694
2589 2695
2590 2696
2591 2697
2592 2698
2593 2699
2594 2700
2595 2701
2596 2702
2597 2703
2598 2704
2599 2705
2600 2706
2601 2707
